<number of tasks>
50

<cycle time>
1000

<order strength>
0.197


<task times>
1 307
2 208
3 412
4 576
5 523
6 453
7 465
8 466
9 564
10 411
11 374
12 542
13 612
14 522
15 401
16 584
17 240
18 278
19 502
20 351
21 497
22 493
23 534
24 410
25 472
26 495
27 302
28 674
29 264
30 629
31 404
32 426
33 666
34 462
35 588
36 475
37 593
38 516
39 405
40 441
41 363
42 628
43 453
44 492
45 525
46 369
47 648
48 618
49 594
50 593

<precedence relations>
1,13
2,13
3,13
4,13
5,24
6,24
8,10
8,12
8,17
9,11
9,14
9,15
9,16
9,18
10,26
11,26
12,26
13,20
13,21
13,22
13,23
14,24
15,24
16,19
17,25
19,26
22,33
24,27
24,28
24,29
24,30
24,31
24,32
26,34
26,35
26,36
26,37
26,38
29,39
29,42
31,40
32,41
37,43
43,44
43,45
43,46
45,47
45,48
46,49
46,50

<end>
